165	32	4	88	
10	10	10	10

0	0	0	0	0	0	4	1	16	29	30
1	1	1	2	0	3	2	28	2
2	5	0	8	1	10	1	3
3	6	3	4	0	2	4	26	25	24	4
4	4	0	6	4	4	2	15	5
5	2	3	0	5	9	4	23	22	21	6
6	5	4	0	4	6	1	7
7	5	0	6	3	6	1	8
8	6	3	4	0	2	2	20	9
9	2	0	5	5	6	2	19	10
10	2	0	4	2	3	2	18	11
11	0	5	1	6	2	1	12
12	7	3	0	5	5	1	13
13	5	0	1	2	6	1	14
14	5	6	3	0	4	1	17
15	3	6	0	5	8	1	21
16	2	0	6	3	10	1	27
17	3	0	2	5	7	1	31
18	0	4	1	2	2	1	31
19	9	0	10	3	7	1	31
20	0	1	2	2	5	1	31
21	3	0	1	5	9	1	31
22	2	6	3	0	9	1	31
23	5	3	0	3	3	1	31
24	5	9	2	0	4	1	31
25	2	0	5	4	6	1	31
26	6	0	5	7	7	1	31
27	4	5	7	0	9	1	31
28	1	5	0	5	6	1	31
29	3	3	0	7	2	1	31
30	5	2	0	4	3	1	31
31	0	0	0	0	0	0
